Gurobi Optimizer version 9.1.0 build v9.1.0rc0 (linux64)
Thread count: 8 physical cores, 16 logical processors, using up to 16 threads
Optimize a model with 191914 rows, 180720 columns and 1051770 nonzeros
Model fingerprint: 0x9bee1563
Variable types: 0 continuous, 180720 integer (180720 binary)
Coefficient statistics:
  Matrix range     [1e+00, 1e+00]
  Objective range  [1e+01, 5e+04]
  Bounds range     [1e+00, 1e+00]
  RHS range        [1e+00, 5e+02]
Presolve added 0 rows and 4970 columns
Presolve removed 30 rows and 0 columns
Presolve time: 4.32s
Presolved: 191884 rows, 185690 columns, 766710 nonzeros
Variable types: 0 continuous, 185690 integer (185690 binary)
Found heuristic solution: objective 718622.00000

Concurrent LP optimizer: primal simplex, dual simplex, and barrier
Showing barrier log only...

Root barrier log...

Ordering time: 0.06s

Barrier statistics:
 Dense cols : 360
 AA' NZ     : 5.947e+05
 Factor NZ  : 3.756e+06 (roughly 200 MBytes of memory)
 Factor Ops : 1.010e+09 (less than 1 second per iteration)
 Threads    : 6

                  Objective                Residual
Iter       Primal          Dual         Primal    Dual     Compl     Time
   0   2.06947687e+08 -2.87157416e+08  3.08e+02 3.04e+01  1.84e+04     8s
   1   1.44429261e+06 -3.57026956e+08  1.39e+00 1.07e+03  7.24e+02     8s
   2   9.82240999e+05 -1.80056505e+08  4.10e-01 5.20e+02  3.43e+02     9s
   3   8.99999606e+05 -1.04152396e+08  2.33e-01 2.95e+02  1.96e+02     9s
   4   7.99654909e+05 -3.55595536e+07  1.55e-02 1.04e+02  6.66e+01    10s
   5   7.77283421e+05 -2.13584176e+06  1.86e-04 9.37e+00  5.32e+00    10s
   6   7.51503986e+05 -1.71802018e+05  1.06e-04 2.27e+00  1.68e+00    10s
   7   7.30700987e+05  2.40161793e+05  8.37e-05 1.04e+00  8.90e-01    11s
   8   7.13088390e+05  4.15608827e+05  6.83e-05 4.83e-01  5.38e-01    11s
   9   6.99833331e+05  5.05404628e+05  5.80e-05 3.69e-01  3.51e-01    11s
  10   6.83846148e+05  5.41258942e+05  4.60e-05 2.54e-01  2.58e-01    12s
  11   6.72707474e+05  5.71873134e+05  3.89e-05 1.42e-01  1.82e-01    13s
  12   6.65465189e+05  5.87629169e+05  3.46e-05 7.86e-02  1.40e-01    13s
  13   6.56200354e+05  5.96189320e+05  2.86e-05 4.99e-02  1.08e-01    14s
  14   6.46722605e+05  6.01794490e+05  2.29e-05 3.20e-02  8.08e-02    15s
  15   6.37403367e+05  6.04835292e+05  1.74e-05 2.14e-02  5.86e-02    15s
  16   6.32861429e+05  6.06753528e+05  1.47e-05 1.45e-02  4.70e-02    16s
  17   6.27909226e+05  6.08389608e+05  1.11e-05 1.03e-02  3.51e-02    16s
  18   6.23775608e+05  6.09402461e+05  8.21e-06 7.79e-03  2.59e-02    17s
  19   6.20894529e+05  6.10071735e+05  6.22e-06 6.25e-03  1.95e-02    17s
  20   6.19547663e+05  6.10987867e+05  5.18e-06 4.36e-03  1.54e-02    18s
  21   6.18868540e+05  6.11268055e+05  4.66e-06 3.78e-03  1.37e-02    18s
  22   6.17234346e+05  6.11569022e+05  3.47e-06 3.15e-03  1.02e-02    18s
  23   6.16410679e+05  6.11783734e+05  2.83e-06 2.66e-03  8.32e-03    19s
  24   6.15837978e+05  6.12031483e+05  2.39e-06 2.19e-03  6.85e-03    19s
  25   6.15364764e+05  6.12306893e+05  2.02e-06 1.58e-03  5.50e-03    20s
  26   6.15100851e+05  6.12364215e+05  1.80e-06 1.43e-03  4.92e-03    20s
  27   6.14763967e+05  6.12473997e+05  1.53e-06 1.15e-03  4.12e-03    21s
  28   6.14514918e+05  6.12542295e+05  1.31e-06 1.00e-03  3.55e-03    21s
  29   6.14156754e+05  6.12601042e+05  1.03e-06 8.71e-04  2.80e-03    22s
  30   6.14007851e+05  6.12697219e+05  9.07e-07 6.75e-04  2.36e-03    22s
  31   6.13814668e+05  6.12741854e+05  7.31e-07 5.95e-04  1.93e-03    23s
  32   6.13649626e+05  6.12799443e+05  5.92e-07 4.49e-04  1.53e-03    23s
  33   6.13514765e+05  6.12837537e+05  4.68e-07 3.70e-04  1.22e-03    24s
  34   6.13435616e+05  6.12873778e+05  4.00e-07 2.87e-04  1.01e-03    24s
  35   6.13344337e+05  6.12895833e+05  3.13e-07 2.51e-04  8.07e-04    25s
  36   6.13297467e+05  6.12933150e+05  2.69e-07 1.80e-04  6.55e-04    25s
  37   6.13265941e+05  6.12943554e+05  2.39e-07 1.61e-04  5.80e-04    26s
  38   6.13215293e+05  6.12957496e+05  1.89e-07 1.27e-04  4.64e-04    26s
  39   6.13199011e+05  6.12970519e+05  1.74e-07 1.04e-04  4.11e-04    27s
  40   6.13165937e+05  6.12977399e+05  1.42e-07 9.01e-05  3.39e-04    27s
  41   6.13131000e+05  6.12984964e+05  1.08e-07 7.58e-05  2.63e-04    28s
  42   6.13121931e+05  6.12991199e+05  9.92e-08 6.44e-05  2.35e-04    28s
  43   6.13098650e+05  6.12998171e+05  7.42e-08 5.11e-05  1.81e-04    29s
  44   6.13090972e+05  6.13004428e+05  6.73e-08 3.90e-05  1.56e-04    29s
  45   6.13077804e+05  6.13007974e+05  5.34e-08 3.26e-05  1.26e-04    29s
  46   6.13068342e+05  6.13010424e+05  4.39e-08 2.80e-05  1.04e-04    30s
  47   6.13060500e+05  6.13014429e+05  3.55e-08 2.03e-05  8.29e-05    30s
  48   6.13051855e+05  6.13016484e+05  2.64e-08 1.66e-05  6.36e-05    31s
  49   6.13047206e+05  6.13019088e+05  2.15e-08 1.23e-05  5.06e-05    31s
  50   6.13042739e+05  6.13020134e+05  1.69e-08 1.05e-05  4.07e-05    32s
  51   6.13041665e+05  6.13020405e+05  1.58e-08 9.97e-06  3.82e-05    32s
  52   6.13039211e+05  6.13021357e+05  1.32e-08 8.72e-06  3.21e-05    32s
  53   6.13036124e+05  6.13022621e+05  1.02e-08 6.90e-06  2.43e-05    33s
  54   6.13034638e+05  6.13023785e+05  8.76e-09 5.25e-06  1.95e-05    33s
  55   6.13033235e+05  6.13024313e+05  7.35e-09 4.39e-06  1.60e-05    34s
  56   6.13031446e+05  6.13024447e+05  5.40e-09 4.12e-06  1.26e-05    34s
  57   6.13031125e+05  6.13024848e+05  5.05e-09 3.38e-06  1.13e-05    34s
  58   6.13030670e+05  6.13025132e+05  4.62e-09 2.93e-06  9.96e-06    35s
  59   6.13029422e+05  6.13025592e+05  3.28e-09 1.80e-06  6.89e-06    35s
  60   6.13028670e+05  6.13025824e+05  2.45e-09 1.45e-06  5.12e-06    36s
  61   6.13028274e+05  6.13025841e+05  2.04e-09 1.40e-06  4.37e-06    36s
  62   6.13027936e+05  6.13026110e+05  1.66e-09 7.68e-07  3.28e-06    36s
  63   6.13027626e+05  6.13026289e+05  1.31e-09 3.69e-07  2.40e-06    37s
  64   6.13027484e+05  6.13026345e+05  1.15e-09 2.20e-07  2.04e-06    37s
  65   6.13027005e+05  6.13026375e+05  6.63e-10 1.59e-07  1.13e-06    38s
  66   6.13026808e+05  6.13026426e+05  8.30e-10 1.61e-08  6.86e-07    38s
  67   6.13026555e+05  6.13026438e+05  9.39e-10 2.25e-09  2.09e-07    39s
  68   6.13026503e+05  6.13026441e+05  1.58e-09 1.40e-09  1.13e-07    39s
  69   6.13026486e+05  6.13026442e+05  7.98e-09 4.09e-08  7.91e-08    40s
  70   6.13026486e+05  6.13026442e+05  1.77e-08 4.06e-08  7.90e-08    40s
  71   6.13026486e+05  6.13026442e+05  1.77e-08 4.12e-08  7.90e-08    40s
  72   6.13026486e+05  6.13026442e+05  5.33e-08 2.50e-09  7.89e-08    41s

Barrier solved model in 72 iterations and 40.65 seconds
Optimal objective 6.13026486e+05


Root crossover log...

   58155 DPushes remaining with DInf 0.0000000e+00                41s
       0 DPushes remaining with DInf 0.0000000e+00                45s

    1390 PPushes remaining with PInf 1.6756959e-05                45s
     631 PPushes remaining with PInf 1.2038934e-05                45s
       0 PPushes remaining with PInf 0.0000000e+00                45s

  Push phase complete: Pinf 0.0000000e+00, Dinf 1.1246780e+01     45s


Root simplex log...

Iteration    Objective       Primal Inf.    Dual Inf.      Time
    9761    6.1302644e+05   0.000000e+00   1.124678e+01     45s
    9763    6.1302644e+05   0.000000e+00   0.000000e+00     45s
    9763    6.1302644e+05   0.000000e+00   0.000000e+00     45s

Solved with barrier

Root relaxation: objective 6.130264e+05, 9763 iterations, 39.05 seconds

    Nodes    |    Current Node    |     Objective Bounds      |     Work
 Expl Unexpl |  Obj  Depth IntInf | Incumbent    BestBd   Gap | It/Node Time

     0     0 613026.445    0 12703 718622.000 613026.445  14.7%     -   49s
H    0     0                    621579.00000 613026.445  1.38%     -   50s
H    0     0                    621487.00000 613026.445  1.36%     -   51s
H    0     0                    621454.00000 613026.445  1.36%     -   52s
     0     0 613026.445    0 12703 621454.000 613026.445  1.36%     -   94s
H    0     0                    621036.00000 613026.445  1.29%     -  124s
H    0     0                    620978.00000 613026.445  1.28%     -  124s
H    0     2                    620885.00000 613026.445  1.27%     -  130s
     0     2 613026.445    0 12700 620885.000 613026.445  1.27%     -  130s
     1     4 613217.218    1 12741 620885.000 613026.550  1.27% 15674  216s
     3     7 613347.147    2 12669 620885.000 613217.420  1.23% 12246  300s

Explored 6 nodes (67574 simplex iterations) in 300.16 seconds
Thread count was 16 (of 16 available processors)

Solution count 7: 620885 620978 621036 ... 718622

Time limit reached
Best objective 6.208850000000e+05, best bound 6.133473075780e+05, gap 1.2140%

User-callback calls 40343, time in user-callback 0.72 sec
Result: runtime=300.10sec; objective=620885; gap=1.2140%
Solution written to /autofs/unityaccount/cremi/mdeboute/Bureau/multi-period-flp/solution//instMulti_I30_J500_T12_0_result.txt
